p cnf 92 445
1 2 3 4 0
-1 -2 0
-1 -3 0
-1 -4 0
-2 -3 0
-2 -4 0
-3 -4 0
5 6 7 8 0
-5 -6 0
-5 -7 0
-5 -8 0
-6 -7 0
-6 -8 0
-7 -8 0
9 10 11 12 0
-9 -10 0
-9 -11 0
-9 -12 0
-10 -11 0
-10 -12 0
-11 -12 0
13 14 15 16 0
-13 -14 0
-13 -15 0
-13 -16 0
-14 -15 0
-14 -16 0
-15 -16 0
17 18 19 20 0
-17 -18 0
-17 -19 0
-17 -20 0
-18 -19 0
-18 -20 0
-19 -20 0
21 22 23 24 0
-21 -22 0
-21 -23 0
-21 -24 0
-22 -23 0
-22 -24 0
-23 -24 0
25 26 27 28 0
-25 -26 0
-25 -27 0
-25 -28 0
-26 -27 0
-26 -28 0
-27 -28 0
29 30 31 32 0
-29 -30 0
-29 -31 0
-29 -32 0
-30 -31 0
-30 -32 0
-31 -32 0
33 34 35 36 0
-33 -34 0
-33 -35 0
-33 -36 0
-34 -35 0
-34 -36 0
-35 -36 0
37 38 39 40 0
-37 -38 0
-37 -39 0
-37 -40 0
-38 -39 0
-38 -40 0
-39 -40 0
41 42 43 44 0
-41 -42 0
-41 -43 0
-41 -44 0
-42 -43 0
-42 -44 0
-43 -44 0
45 46 47 48 0
-45 -46 0
-45 -47 0
-45 -48 0
-46 -47 0
-46 -48 0
-47 -48 0
49 50 51 52 0
-49 -50 0
-49 -51 0
-49 -52 0
-50 -51 0
-50 -52 0
-51 -52 0
53 54 55 56 0
-53 -54 0
-53 -55 0
-53 -56 0
-54 -55 0
-54 -56 0
-55 -56 0
57 58 59 60 0
-57 -58 0
-57 -59 0
-57 -60 0
-58 -59 0
-58 -60 0
-59 -60 0
61 62 63 64 0
-61 -62 0
-61 -63 0
-61 -64 0
-62 -63 0
-62 -64 0
-63 -64 0
65 66 67 68 0
-65 -66 0
-65 -67 0
-65 -68 0
-66 -67 0
-66 -68 0
-67 -68 0
69 70 71 72 0
-69 -70 0
-69 -71 0
-69 -72 0
-70 -71 0
-70 -72 0
-71 -72 0
73 74 75 76 0
-73 -74 0
-73 -75 0
-73 -76 0
-74 -75 0
-74 -76 0
-75 -76 0
77 78 79 80 0
-77 -78 0
-77 -79 0
-77 -80 0
-78 -79 0
-78 -80 0
-79 -80 0
81 82 83 84 0
-81 -82 0
-81 -83 0
-81 -84 0
-82 -83 0
-82 -84 0
-83 -84 0
85 86 87 88 0
-85 -86 0
-85 -87 0
-85 -88 0
-86 -87 0
-86 -88 0
-87 -88 0
89 90 91 92 0
-89 -90 0
-89 -91 0
-89 -92 0
-90 -91 0
-90 -92 0
-91 -92 0
-1 -5 0
-2 -6 0
-3 -7 0
-4 -8 0
-1 -17 0
-2 -18 0
-3 -19 0
-4 -20 0
-1 -25 0
-2 -26 0
-3 -27 0
-4 -28 0
-1 -37 0
-2 -38 0
-3 -39 0
-4 -40 0
-1 -49 0
-2 -50 0
-3 -51 0
-4 -52 0
-1 -61 0
-2 -62 0
-3 -63 0
-4 -64 0
-1 -69 0
-2 -70 0
-3 -71 0
-4 -72 0
-1 -81 0
-2 -82 0
-3 -83 0
-4 -84 0
-5 -9 0
-6 -10 0
-7 -11 0
-8 -12 0
-5 -21 0
-6 -22 0
-7 -23 0
-8 -24 0
-5 -29 0
-6 -30 0
-7 -31 0
-8 -32 0
-5 -45 0
-6 -46 0
-7 -47 0
-8 -48 0
-5 -53 0
-6 -54 0
-7 -55 0
-8 -56 0
-5 -65 0
-6 -66 0
-7 -67 0
-8 -68 0
-5 -73 0
-6 -74 0
-7 -75 0
-8 -76 0
-9 -13 0
-10 -14 0
-11 -15 0
-12 -16 0
-9 -25 0
-10 -26 0
-11 -27 0
-12 -28 0
-9 -33 0
-10 -34 0
-11 -35 0
-12 -36 0
-9 -49 0
-10 -50 0
-11 -51 0
-12 -52 0
-9 -57 0
-10 -58 0
-11 -59 0
-12 -60 0
-9 -69 0
-10 -70 0
-11 -71 0
-12 -72 0
-9 -77 0
-10 -78 0
-11 -79 0
-12 -80 0
-13 -17 0
-14 -18 0
-15 -19 0
-16 -20 0
-13 -29 0
-14 -30 0
-15 -31 0
-16 -32 0
-13 -37 0
-14 -38 0
-15 -39 0
-16 -40 0
-13 -53 0
-14 -54 0
-15 -55 0
-16 -56 0
-13 -61 0
-14 -62 0
-15 -63 0
-16 -64 0
-13 -73 0
-14 -74 0
-15 -75 0
-16 -76 0
-13 -81 0
-14 -82 0
-15 -83 0
-16 -84 0
-17 -21 0
-18 -22 0
-19 -23 0
-20 -24 0
-17 -33 0
-18 -34 0
-19 -35 0
-20 -36 0
-17 -45 0
-18 -46 0
-19 -47 0
-20 -48 0
-17 -57 0
-18 -58 0
-19 -59 0
-20 -60 0
-17 -65 0
-18 -66 0
-19 -67 0
-20 -68 0
-17 -77 0
-18 -78 0
-19 -79 0
-20 -80 0
-21 -41 0
-22 -42 0
-23 -43 0
-24 -44 0
-21 -49 0
-22 -50 0
-23 -51 0
-24 -52 0
-21 -61 0
-22 -62 0
-23 -63 0
-24 -64 0
-21 -85 0
-22 -86 0
-23 -87 0
-24 -88 0
-25 -41 0
-26 -42 0
-27 -43 0
-28 -44 0
-25 -45 0
-26 -46 0
-27 -47 0
-28 -48 0
-25 -53 0
-26 -54 0
-27 -55 0
-28 -56 0
-25 -85 0
-26 -86 0
-27 -87 0
-28 -88 0
-29 -41 0
-30 -42 0
-31 -43 0
-32 -44 0
-29 -49 0
-30 -50 0
-31 -51 0
-32 -52 0
-29 -57 0
-30 -58 0
-31 -59 0
-32 -60 0
-29 -85 0
-30 -86 0
-31 -87 0
-32 -88 0
-33 -41 0
-34 -42 0
-35 -43 0
-36 -44 0
-33 -53 0
-34 -54 0
-35 -55 0
-36 -56 0
-33 -61 0
-34 -62 0
-35 -63 0
-36 -64 0
-33 -85 0
-34 -86 0
-35 -87 0
-36 -88 0
-37 -41 0
-38 -42 0
-39 -43 0
-40 -44 0
-37 -45 0
-38 -46 0
-39 -47 0
-40 -48 0
-37 -57 0
-38 -58 0
-39 -59 0
-40 -60 0
-37 -85 0
-38 -86 0
-39 -87 0
-40 -88 0
-41 -65 0
-42 -66 0
-43 -67 0
-44 -68 0
-41 -69 0
-42 -70 0
-43 -71 0
-44 -72 0
-41 -73 0
-42 -74 0
-43 -75 0
-44 -76 0
-41 -77 0
-42 -78 0
-43 -79 0
-44 -80 0
-41 -81 0
-42 -82 0
-43 -83 0
-44 -84 0
-45 -89 0
-46 -90 0
-47 -91 0
-48 -92 0
-49 -89 0
-50 -90 0
-51 -91 0
-52 -92 0
-53 -89 0
-54 -90 0
-55 -91 0
-56 -92 0
-57 -89 0
-58 -90 0
-59 -91 0
-60 -92 0
-61 -89 0
-62 -90 0
-63 -91 0
-64 -92 0
-65 -89 0
-66 -90 0
-67 -91 0
-68 -92 0
-69 -89 0
-70 -90 0
-71 -91 0
-72 -92 0
-73 -89 0
-74 -90 0
-75 -91 0
-76 -92 0
-77 -89 0
-78 -90 0
-79 -91 0
-80 -92 0
-81 -89 0
-82 -90 0
-83 -91 0
-84 -92 0
-85 -89 0
-86 -90 0
-87 -91 0
-88 -92 0
